1638345600
1638363600
1638432000
1638450000
1638518400
1638524700
1638528300
1638540000
1638777600
1638799560
1638864000
1638882000
1638950400
1638968400
1639036800
1639054800
1639123200
1639129500
1639133100
1639144800
1639382400
1639400400
1639468800
1639486800
1639555200
1639573200
1639641600
1639659600
1639728000
1639734300
1639737900
1639749600
1639987200
1640005200
1640073600
1640091600
1640160000
1640178000
1640246400
1640264400
